(set-info :smt-lib-version 2.6)
(set-logic UFNIA)
(set-info :source |
Generated by: Geoff Sutcliffe
Generated on: 2026-03-11
Generator: TPTPWorld
Application: Benchmarking automated theorem provers
Time limit: 120.0

These benchmarks are translations from the TPTP Library (Thousands of
Problems for Theorem Provers), see http://www.cs.miami.edu/~tptp/

The TPTP is maintained by Geoff Sutcliffe, and he contributed this
selection of benchmarks to SMT-LIB.  They were exported from the
v9.2.1 realease of TPTP.
|)
(set-info :category "industrial")
(set-info :status "unknown")
; SZS status Success
(declare-sort $$unsorted 0)
(declare-sort tptp.uni 0)
(declare-sort tptp.ty 0)
(declare-fun tptp.sort1 (tptp.ty tptp.uni) Bool)
(declare-fun tptp.witness1 (tptp.ty) tptp.uni)
(assert (forall ((A tptp.ty)) (tptp.sort1 A (tptp.witness1 A))))
(declare-fun tptp.int () tptp.ty)
(declare-fun tptp.real () tptp.ty)
(assert (forall ((X Int) (Y Int) (Z Int)) (=> (<= X Y) (=> (<= 0 Z) (<= (* X Z) (* Y Z))))))
(declare-fun tptp.abs1 (Int) Int)
(assert (forall ((X Int)) (let ((_let_1 (tptp.abs1 X))) (let ((_let_2 (<= 0 X))) (and (=> _let_2 (= _let_1 X)) (=> (not _let_2) (= _let_1 (- X))))))))
(assert (forall ((X Int) (Y Int)) (= (<= (tptp.abs1 X) Y) (and (<= (- Y) X) (<= X Y)))))
(assert (forall ((X Int)) (<= 0 (tptp.abs1 X))))
(declare-fun tptp.div1 (Int Int) Int)
(declare-fun tptp.mod1 (Int Int) Int)
(assert (forall ((X Int) (Y Int)) (=> (not (= Y 0)) (= X (+ (* Y (tptp.div1 X Y)) (tptp.mod1 X Y))))))
(assert (forall ((X Int) (Y Int)) (let ((_let_1 (tptp.div1 X Y))) (=> (and (<= 0 X) (< 0 Y)) (and (<= 0 _let_1) (<= _let_1 X))))))
(assert (forall ((X Int) (Y Int)) (let ((_let_1 (tptp.abs1 Y))) (let ((_let_2 (tptp.mod1 X Y))) (=> (not (= Y 0)) (and (< (- _let_1) _let_2) (< _let_2 _let_1)))))))
(assert (forall ((X Int) (Y Int)) (=> (and (<= 0 X) (< 0 Y)) (<= 0 (tptp.div1 X Y)))))
(assert (forall ((X Int) (Y Int)) (=> (and (<= X 0) (< 0 Y)) (<= (tptp.div1 X Y) 0))))
(assert (forall ((X Int) (Y Int)) (=> (and (<= 0 X) (not (= Y 0))) (<= 0 (tptp.mod1 X Y)))))
(assert (forall ((X Int) (Y Int)) (=> (and (<= X 0) (not (= Y 0))) (<= (tptp.mod1 X Y) 0))))
(assert (forall ((X Int) (Y Int)) (=> (not (= Y 0)) (<= (tptp.abs1 (* (tptp.div1 X Y) Y)) (tptp.abs1 X)))))
(assert (forall ((X Int)) (= (tptp.div1 X 1) X)))
(assert (forall ((X Int)) (= (tptp.mod1 X 1) 0)))
(assert (forall ((X Int) (Y Int)) (=> (and (<= 0 X) (< X Y)) (= (tptp.div1 X Y) 0))))
(assert (forall ((X Int) (Y Int)) (=> (and (<= 0 X) (< X Y)) (= (tptp.mod1 X Y) X))))
(assert (forall ((X Int) (Y Int) (Z Int)) (=> (and (< 0 X) (<= 0 Y) (<= 0 Z)) (= (tptp.div1 (+ (* X Y) Z) X) (+ Y (tptp.div1 Z X))))))
(assert (forall ((X Int) (Y Int) (Z Int)) (=> (and (< 0 X) (<= 0 Y) (<= 0 Z)) (= (tptp.mod1 (+ (* X Y) Z) X) (tptp.mod1 Z X)))))
(declare-fun tptp.sum_multiple_3_5_lt1 (Int) Int)
(assert (= (tptp.sum_multiple_3_5_lt1 0) 0))
(assert (forall ((N Int)) (=> (<= 0 N) (=> (and (not (= (tptp.mod1 N 3) 0)) (not (= (tptp.mod1 N 5) 0))) (= (tptp.sum_multiple_3_5_lt1 (+ N 1)) (tptp.sum_multiple_3_5_lt1 N))))))
(assert (forall ((N Int)) (=> (<= 0 N) (=> (or (= (tptp.mod1 N 3) 0) (= (tptp.mod1 N 5) 0)) (= (tptp.sum_multiple_3_5_lt1 (+ N 1)) (+ (tptp.sum_multiple_3_5_lt1 N) N))))))
(assert (forall ((X Int)) (exists ((Y Int)) (let ((_let_1 (* 2 Y))) (or (= X _let_1) (= X (+ _let_1 1)))))))
(assert (forall ((X Int) (Y Int) (Q Int) (R Int)) (=> (and (<= 0 X) (< 0 Y) (= X (+ (* Q Y) R)) (<= 0 R) (< R Y)) (and (= Q (tptp.div1 X Y)) (= R (tptp.mod1 X Y))))))
(assert (forall ((X Int) (Y Int)) (let ((_let_1 (tptp.mod1 (+ X 1) Y))) (=> (and (<= 0 X) (< 0 Y)) (=> (not (= _let_1 0)) (= _let_1 (+ (tptp.mod1 X Y) 1)))))))
(assert (forall ((X Int) (Y Int)) (=> (and (<= 0 X) (< 0 Y)) (=> (= (tptp.mod1 (+ X 1) Y) 0) (= (tptp.mod1 X Y) (- Y 1))))))
(assert (forall ((X Int) (Y Int)) (let ((_let_1 (+ X 1))) (=> (and (<= 0 X) (< 0 Y)) (=> (= (tptp.mod1 _let_1 Y) 0) (= (tptp.div1 _let_1 Y) (+ (tptp.div1 X Y) 1)))))))
(assert (forall ((X Int) (Y Int)) (let ((_let_1 (+ X 1))) (=> (and (<= 0 X) (< 0 Y)) (=> (not (= (tptp.mod1 _let_1 Y) 0)) (= (tptp.div1 _let_1 Y) (tptp.div1 X Y)))))))
(assert (forall ((X Int)) (= (tptp.mod1 (* 2 X) 2) 0)))
(assert (forall ((X Int) (Y Int)) (= (tptp.mod1 (* Y (* 2 X)) 2) 0)))
(assert (forall ((X Int) (Y Int) (Z Int) (T Int)) (= (tptp.mod1 (+ (* Y (* 2 X)) (* Z (* 2 T))) 2) 0)))
(assert (forall ((X Int)) (= (tptp.div1 (* 2 X) 2) X)))
(assert (forall ((X Int) (Y Int)) (= (tptp.div1 (* Y (* 2 X)) 2) (* Y X))))
(assert (forall ((X Int) (Y Int)) (=> (and (= (tptp.mod1 X 2) 0) (= (tptp.mod1 Y 2) 0)) (= (tptp.div1 (+ X Y) 2) (+ (tptp.div1 X 2) (tptp.div1 Y 2))))))
(assert (forall ((X Int) (Y Int)) (=> (and (= (tptp.mod1 X 2) 0) (= (tptp.mod1 Y 2) 0)) (= (tptp.div1 (- X Y) 2) (- (tptp.div1 X 2) (tptp.div1 Y 2))))))
(assert (forall ((N Int)) (=> (<= 0 N) (= (tptp.mod1 (* N (+ N 1)) 2) 0))))
(declare-fun tptp.tr1 (Int) Int)
(assert (forall ((N Int)) (= (tptp.tr1 N) (tptp.div1 (* N (+ N 1)) 2))))
(assert (forall ((N Int)) (=> (<= 0 N) (= (* N (+ N 1)) (* 2 (tptp.tr1 N))))))
(assert (forall ((N Int)) (=> (<= 0 N) (= (tptp.tr1 (+ N 1)) (+ (+ (tptp.tr1 N) N) 1)))))
(declare-fun tptp.closed_formula_aux1 (Int) Int)
(assert (forall ((N Int)) (= (tptp.closed_formula_aux1 N) (- (+ (* 3 (tptp.tr1 (tptp.div1 N 3))) (* 5 (tptp.tr1 (tptp.div1 N 5)))) (* 15 (tptp.tr1 (tptp.div1 N 15)))))))
(declare-fun tptp.p1 (Int) Bool)
(assert (forall ((N Int)) (= (tptp.p1 N) (= (tptp.sum_multiple_3_5_lt1 (+ N 1)) (tptp.closed_formula_aux1 N)))))
(assert (forall ((N Int)) (= (= (tptp.mod1 N 15) 0) (and (= (tptp.mod1 N 3) 0) (= (tptp.mod1 N 5) 0)))))
(assert (tptp.p1 0))
(assert (forall ((N Int)) (=> (< 0 N) (=> (tptp.p1 (- N 1)) (=> (and (not (= (tptp.mod1 N 3) 0)) (not (= (tptp.mod1 N 5) 0))) (tptp.p1 N))))))
(assert (forall ((N Int)) (=> (< 0 N) (=> (tptp.p1 (- N 1)) (=> (and (= (tptp.mod1 N 3) 0) (not (= (tptp.mod1 N 5) 0))) (tptp.p1 N))))))
(assert (forall ((N Int)) (=> (< 0 N) (=> (tptp.p1 (- N 1)) (=> (and (not (= (tptp.mod1 N 3) 0)) (= (tptp.mod1 N 5) 0)) (tptp.p1 N))))))
(assert (not (forall ((N Int)) (=> (< 0 N) (=> (tptp.p1 (- N 1)) (=> (and (= (tptp.mod1 N 3) 0) (= (tptp.mod1 N 5) 0)) (tptp.p1 N)))))))
(check-sat)
(exit)
